Welcome to the CBC MILP Solver 
Version: Trunk
Build Date: Apr 16 2020 

Starting solution of the Linear programming relaxation problem using Primal Simplex

Using Python-MIP package version 1.8.1
Machines:  4 Jobs:  4
Order: 
Job  0 : machine 0 ( 10 ) machine 3 ( 1 ) machine 2 ( 6 ) machine 1 ( 7 ) 
Job  1 : machine 0 ( 1 ) machine 3 ( 7 ) machine 1 ( 5 ) machine 2 ( 8 ) 
Job  2 : machine 3 ( 9 ) machine 2 ( 3 ) machine 1 ( 7 ) machine 0 ( 1 ) 
Job  3 : machine 1 ( 7 ) machine 3 ( 3 ) machine 0 ( 9 ) machine 2 ( 10 ) 
K:  44
Job  0 , e: machine  0 ( 0 ) machine  1 ( 17 ) machine  2 ( 11 ) machine  3 ( 10 ) 
Job  1 , e: machine  0 ( 0 ) machine  1 ( 8 ) machine  2 ( 13 ) machine  3 ( 1 ) 
Job  2 , e: machine  0 ( 19 ) machine  1 ( 12 ) machine  2 ( 9 ) machine  3 ( 0 ) 
Job  3 , e: machine  0 ( 10 ) machine  1 ( 0 ) machine  2 ( 19 ) machine  3 ( 7 ) 
Job  0 , f: machine  0 ( 14 ) machine  1 ( 0 ) machine  2 ( 7 ) machine  3 ( 13 ) 
Job  1 , f: machine  0 ( 20 ) machine  1 ( 8 ) machine  2 ( 0 ) machine  3 ( 13 ) 
Job  2 , f: machine  0 ( 0 ) machine  1 ( 1 ) machine  2 ( 8 ) machine  3 ( 11 ) 
Job  3 , f: machine  0 ( 10 ) machine  1 ( 22 ) machine  2 ( 0 ) machine  3 ( 19 ) 
EST and LST:
Job: 0 Machine: 0 EST: 0 LST: 20
Job: 0 Machine: 1 EST: 17 LST: 37
Job: 0 Machine: 2 EST: 11 LST: 31
Job: 0 Machine: 3 EST: 10 LST: 30
Job: 1 Machine: 0 EST: 0 LST: 23
Job: 1 Machine: 1 EST: 8 LST: 31
Job: 1 Machine: 2 EST: 13 LST: 36
Job: 1 Machine: 3 EST: 1 LST: 24
Job: 2 Machine: 0 EST: 19 LST: 43
Job: 2 Machine: 1 EST: 12 LST: 36
Job: 2 Machine: 2 EST: 9 LST: 33
Job: 2 Machine: 3 EST: 0 LST: 24
Job: 3 Machine: 0 EST: 10 LST: 25
Job: 3 Machine: 1 EST: 0 LST: 15
Job: 3 Machine: 2 EST: 19 LST: 34
Job: 3 Machine: 3 EST: 7 LST: 22
Order:
Job: 0 Machine: 0 = 0 
Job: 0 Machine: 1 = 3 
Job: 0 Machine: 2 = 2 
Job: 0 Machine: 3 = 1 
Job: 1 Machine: 0 = 0 
Job: 1 Machine: 1 = 2 
Job: 1 Machine: 2 = 3 
Job: 1 Machine: 3 = 1 
Job: 2 Machine: 0 = 3 
Job: 2 Machine: 1 = 2 
Job: 2 Machine: 2 = 1 
Job: 2 Machine: 3 = 0 
Job: 3 Machine: 0 = 2 
Job: 3 Machine: 1 = 0 
Job: 3 Machine: 2 = 3 
Job: 3 Machine: 3 = 1 
Distances:
Job 0, Machine 0 -> Machine 3: distance 10
Job 0, Machine 0 -> Machine 2: distance 11
Job 0, Machine 0 -> Machine 1: distance 17
Job 0, Machine 3 -> Machine 2: distance 1
Job 0, Machine 3 -> Machine 1: distance 7
Job 0, Machine 2 -> Machine 1: distance 6
Job 1, Machine 0 -> Machine 3: distance 1
Job 1, Machine 0 -> Machine 1: distance 8
Job 1, Machine 0 -> Machine 2: distance 13
Job 1, Machine 3 -> Machine 1: distance 7
Job 1, Machine 3 -> Machine 2: distance 12
Job 1, Machine 1 -> Machine 2: distance 5
Job 2, Machine 3 -> Machine 2: distance 9
Job 2, Machine 3 -> Machine 1: distance 12
Job 2, Machine 3 -> Machine 0: distance 19
Job 2, Machine 2 -> Machine 1: distance 3
Job 2, Machine 2 -> Machine 0: distance 10
Job 2, Machine 1 -> Machine 0: distance 7
Job 3, Machine 1 -> Machine 3: distance 7
Job 3, Machine 1 -> Machine 0: distance 10
Job 3, Machine 1 -> Machine 2: distance 19
Job 3, Machine 3 -> Machine 0: distance 3
Job 3, Machine 3 -> Machine 2: distance 12
Job 3, Machine 0 -> Machine 2: distance 9
McCormic linearization
19.0 13.0 7
14.0 13.0 7
19.0 19.0 10
10.0 7.0 7
7.0 1.0 9
[(0, 1), (1, 2), (3, 2), (0, 0), (2, 1), (1, 0), (0, 3)]
obj:  0.6000000000000001
solutions:  1
+ x(0,0) + 0.1x(1,0) 
C:  28.999999999999996
x(0,0) = 0.20	 x(0,1) = 19.00	 x(0,2) = 13.00	 x(0,3) = 10.20	 
x(1,0) = 8.00	 x(1,1) = 16.00	 x(1,2) = 21.00	 x(1,3) = 9.00	 
x(2,0) = 20.20	 x(2,1) = 13.20	 x(2,2) = 10.20	 x(2,3) = 1.20	 
x(3,0) = 10.00	 x(3,1) = 0.00	 x(3,2) = 19.00	 x(3,3) = 7.00	 
y(0,1,0) = 0.37	 y(1,0,0) = 0.63	 
y(0,2,0) = 0.48	 y(2,0,0) = 0.52	 
y(0,3,0) = 0.99	 y(3,0,0) = 0.01	 
y(1,2,0) = 0.30	 y(2,1,0) = 0.70	 
y(1,3,0) = 0.96	 y(3,1,0) = 0.04	 
y(2,3,0) = 0.00	 y(3,2,0) = 1.00	 
y(0,1,1) = 0.48	 y(1,0,1) = 0.52	 
y(0,2,1) = 0.05	 y(2,0,1) = 0.95	 
y(0,3,1) = 0.00	 y(3,0,1) = 1.00	 
y(1,2,1) = 0.12	 y(2,1,1) = 0.88	 
y(1,3,1) = 0.38	 y(3,1,1) = 0.62	 
y(2,3,1) = 0.00	 y(3,2,1) = 1.00	 
y(0,1,2) = 0.48	 y(1,0,2) = 0.52	 
y(0,2,2) = 0.44	 y(2,0,2) = 0.56	 
y(0,3,2) = 1.00	 y(3,0,2) = 0.00	 
y(1,2,2) = 0.00	 y(2,1,2) = 1.00	 
y(1,3,2) = 0.26	 y(3,1,2) = 0.74	 
y(2,3,2) = 0.74	 y(3,2,2) = 0.26	 
y(0,1,3) = 0.28	 y(1,0,3) = 0.72	 
y(0,2,3) = 0.00	 y(2,0,3) = 1.00	 
y(0,3,3) = 0.01	 y(3,0,3) = 0.99	 
y(1,2,3) = 0.04	 y(2,1,3) = 0.96	 
y(1,3,3) = 0.04	 y(3,1,3) = 0.96	 
y(2,3,3) = 0.35	 y(3,2,3) = 0.65	 
19.0 15.999999999999996 5
19.0 13.200000000000001 7
15.999999999999996 13.200000000000001 7
12.999999999999998 10.199999999999998 3
21.0 18.999999999999996 10
10.200000000000001 8.999999999999996 7
8.999999999999996 1.1999999999999988 9
obj:  0.9174311926605514
solutions:  1
+ 0.09174311926605344x(0,0) + 0.08256880733944968x(3,0) + 0.009174311926605507x(1,0) 
[(0, 1), (0, 0), (3, 0), (0, 2), (2, 1), (1, 0), (1, 1)]
cliques:  1 mip: 72
C:  29.699716713880658
x(0,0) = 5.70	 x(0,1) = 22.70	 x(0,2) = 16.70	 x(0,3) = 15.70	 
x(1,0) = -0.00	 x(1,1) = 8.00	 x(1,2) = 13.00	 x(1,3) = 1.00	 
x(2,0) = 22.70	 x(2,1) = 15.70	 x(2,2) = 12.70	 x(2,3) = 3.70	 
x(3,0) = 10.09	 x(3,1) = 0.00	 x(3,2) = 19.09	 x(3,3) = 7.08	 
y(0,1,0) = 0.00	 y(1,0,0) = 1.00	 
y(0,2,0) = 0.70	 y(2,0,0) = 0.30	 
y(0,3,0) = 0.39	 y(3,0,0) = 0.61	 
y(1,2,0) = 0.54	 y(2,1,0) = 0.46	 
y(1,3,0) = 0.62	 y(3,1,0) = 0.38	 
y(2,3,0) = 0.00	 y(3,2,0) = 1.00	 
y(0,1,1) = 0.13	 y(1,0,1) = 0.87	 
y(0,2,1) = 0.00	 y(2,0,1) = 1.00	 
y(0,3,1) = 0.00	 y(3,0,1) = 1.00	 
y(1,2,1) = 0.42	 y(2,1,1) = 0.58	 
y(1,3,1) = 0.04	 y(3,1,1) = 0.96	 
y(2,3,1) = 0.00	 y(3,2,1) = 1.00	 
y(0,1,2) = 0.13	 y(1,0,2) = 0.87	 
y(0,2,2) = 0.14	 y(2,0,2) = 0.86	 
y(0,3,2) = 0.71	 y(3,0,2) = 0.29	 
y(1,2,2) = 0.12	 y(2,1,2) = 0.88	 
y(1,3,2) = 0.92	 y(3,1,2) = 0.08	 
y(2,3,2) = 0.85	 y(3,2,2) = 0.15	 
y(0,1,3) = 0.00	 y(1,0,3) = 1.00	 
y(0,2,3) = 0.14	 y(2,0,3) = 0.86	 
y(0,3,3) = 0.26	 y(3,0,3) = 0.74	 
y(1,2,3) = 0.37	 y(2,1,3) = 0.63	 
y(1,3,3) = 0.38	 y(3,1,3) = 0.62	 
y(2,3,3) = 0.26	 y(3,2,3) = 0.74	 
22.699716713880655 15.699716713880658 7
16.69971671388065 12.99999999999799 8
12.99999999999799 12.699716713880658 3
obj:  0.8314601551915068
solutions:  1
+ 0.013586956521739125x(1,2) + 0.027173913043478267x(3,2) + 0.008152173913043476x(0,2) 
[(0, 1), (1, 2), (3, 2), (0, 0), (3, 0), (2, 1), (0, 2)]
cliques:  1 mip: 121
C:  33.026845637583904
x(0,0) = 6.09	 x(0,1) = 26.03	 x(0,2) = 20.03	 x(0,3) = 17.13	 
x(1,0) = 5.09	 x(1,1) = 15.48	 x(1,2) = 23.58	 x(1,3) = 8.48	 
x(2,0) = 28.91	 x(2,1) = 21.91	 x(2,2) = 16.13	 x(2,3) = 7.13	 
x(3,0) = 10.00	 x(3,1) = 0.00	 x(3,2) = 19.00	 x(3,3) = 7.00	 
y(0,1,0) = 0.00	 y(1,0,0) = 1.00	 
y(0,2,0) = 0.61	 y(2,0,0) = 0.39	 
y(0,3,0) = 0.70	 y(3,0,0) = 0.30	 
y(1,2,0) = 0.74	 y(2,1,0) = 0.26	 
y(1,3,0) = 0.84	 y(3,1,0) = 0.16	 
y(2,3,0) = 0.00	 y(3,2,0) = 1.00	 
y(0,1,1) = 0.10	 y(1,0,1) = 0.90	 
y(0,2,1) = 0.11	 y(2,0,1) = 0.89	 
y(0,3,1) = 0.00	 y(3,0,1) = 1.00	 
y(1,2,1) = 0.58	 y(2,1,1) = 0.42	 
y(1,3,1) = 0.43	 y(3,1,1) = 0.57	 
y(2,3,1) = 0.00	 y(3,2,1) = 1.00	 
y(0,1,2) = 0.67	 y(1,0,2) = 0.33	 
y(0,2,2) = 0.05	 y(2,0,2) = 0.95	 
y(0,3,2) = 0.61	 y(3,0,2) = 0.39	 
y(1,2,2) = 0.19	 y(2,1,2) = 0.81	 
y(1,3,2) = 0.50	 y(3,1,2) = 0.50	 
y(2,3,2) = 0.99	 y(3,2,2) = 0.01	 
y(0,1,3) = 0.00	 y(1,0,3) = 1.00	 
y(0,2,3) = 0.31	 y(2,0,3) = 0.69	 
y(0,3,3) = 0.36	 y(3,0,3) = 0.64	 
y(1,2,3) = 0.24	 y(2,1,3) = 0.76	 
y(1,3,3) = 0.06	 y(3,1,3) = 0.94	 
y(2,3,3) = 0.11	 y(3,2,3) = 0.89	 
26.026845637583904 21.91299836068198 7
20.026845637583907 19.0 10
23.58389261744966 19.0 10
8.476510067114107 7.133967067506822 9
7.133967067506822 7.000000000000001 3
obj:  0.9700767547925395
solutions:  1
+ 0.0055248618784530384x(1,2) + 0.04419889502762431x(3,2) 
[(0, 1), (1, 2), (3, 2), (0, 0), (3, 0), (2, 1), (0, 2)]
cliques:  1 mip: 121
C:  34.0
x(0,0) = 5.49	 x(0,1) = 27.00	 x(0,2) = 21.00	 x(0,3) = 16.81	 
x(1,0) = 2.42	 x(1,1) = 11.49	 x(1,2) = 19.70	 x(1,3) = 3.42	 
x(2,0) = 29.97	 x(2,1) = 22.97	 x(2,2) = 17.64	 x(2,3) = 7.19	 
x(3,0) = 13.26	 x(3,1) = 0.00	 x(3,2) = 22.26	 x(3,3) = 10.26	 
y(0,1,0) = 0.11	 y(1,0,0) = 0.89	 
y(0,2,0) = 0.78	 y(2,0,0) = 0.22	 
y(0,3,0) = 0.89	 y(3,0,0) = 0.11	 
y(1,2,0) = 0.86	 y(2,1,0) = 0.14	 
y(1,3,0) = 0.58	 y(3,1,0) = 0.42	 
y(2,3,0) = 0.00	 y(3,2,0) = 1.00	 
y(0,1,1) = 0.06	 y(1,0,1) = 0.94	 
y(0,2,1) = 0.16	 y(2,0,1) = 0.84	 
y(0,3,1) = 0.00	 y(3,0,1) = 1.00	 
y(1,2,1) = 0.72	 y(2,1,1) = 0.28	 
y(1,3,1) = 0.28	 y(3,1,1) = 0.72	 
y(2,3,1) = 0.00	 y(3,2,1) = 1.00	 
y(0,1,2) = 0.42	 y(1,0,2) = 0.58	 
y(0,2,2) = 0.02	 y(2,0,2) = 0.98	 
y(0,3,2) = 0.45	 y(3,0,2) = 0.55	 
y(1,2,2) = 0.04	 y(2,1,2) = 0.96	 
y(1,3,2) = 0.78	 y(3,1,2) = 0.22	 
y(2,3,2) = 0.93	 y(3,2,2) = 0.07	 
y(0,1,3) = 0.00	 y(1,0,3) = 1.00	 
y(0,2,3) = 0.17	 y(2,0,3) = 0.83	 
y(0,3,3) = 0.18	 y(3,0,3) = 0.82	 
y(1,2,3) = 0.40	 y(2,1,3) = 0.60	 
y(1,3,3) = 0.62	 y(3,1,3) = 0.38	 
y(2,3,3) = 0.24	 y(3,2,3) = 0.76	 
27.000000000000004 22.967129146434253 7
21.000000000000004 19.69565217391303 8
19.69565217391303 17.638675679280237 3
obj:  1.0437145557655951
erro
[(0, 1), (1, 2), (3, 2), (0, 0), (3, 0), (2, 1), (0, 2)]
cliques:  0 mip: 105
C:  34.0
x(0,0) = 6.84	 x(0,1) = 27.00	 x(0,2) = 19.06	 x(0,3) = 18.06	 
x(1,0) = 2.39	 x(1,1) = 10.39	 x(1,2) = 15.39	 x(1,3) = 3.39	 
x(2,0) = 29.15	 x(2,1) = 22.15	 x(2,2) = 17.26	 x(2,3) = 6.79	 
x(3,0) = 11.89	 x(3,1) = 0.00	 x(3,2) = 23.39	 x(3,3) = 8.89	 
y(0,1,0) = 0.18	 y(1,0,0) = 0.82	 
y(0,2,0) = 0.59	 y(2,0,0) = 0.41	 
y(0,3,0) = 0.75	 y(3,0,0) = 0.25	 
y(1,2,0) = 1.00	 y(2,1,0) = 0.00	 
y(1,3,0) = 0.64	 y(3,1,0) = 0.36	 
y(2,3,0) = 0.00	 y(3,2,0) = 1.00	 
y(0,1,1) = 0.00	 y(1,0,1) = 1.00	 
y(0,2,1) = 0.15	 y(2,0,1) = 0.85	 
y(0,3,1) = 0.00	 y(3,0,1) = 1.00	 
y(1,2,1) = 0.74	 y(2,1,1) = 0.26	 
y(1,3,1) = 0.10	 y(3,1,1) = 0.90	 
y(2,3,1) = 0.00	 y(3,2,1) = 1.00	 
y(0,1,2) = 0.36	 y(1,0,2) = 0.64	 
y(0,2,2) = 0.05	 y(2,0,2) = 0.95	 
y(0,3,2) = 0.70	 y(3,0,2) = 0.30	 
y(1,2,2) = 0.21	 y(2,1,2) = 0.79	 
y(1,3,2) = 1.00	 y(3,1,2) = 0.00	 
y(2,3,2) = 0.78	 y(3,2,2) = 0.22	 
y(0,1,3) = 0.00	 y(1,0,3) = 1.00	 
y(0,2,3) = 0.28	 y(2,0,3) = 0.72	 
y(0,3,3) = 0.48	 y(3,0,3) = 0.52	 
y(1,2,3) = 0.39	 y(2,1,3) = 0.61	 
y(1,3,3) = 0.48	 y(3,1,3) = 0.52	 
y(2,3,3) = 0.20	 y(3,2,3) = 0.80	 
27.000000000000004 22.150728742729328 7
19.057563400865973 15.3884873198268 8
19.057563400865973 17.25552877720452 3
obj:  1.0753043308492145
erro
[(0, 1), (1, 2), (0, 0), (3, 0), (2, 1), (2, 2), (0, 2)]
cliques:  0 mip: 120
C:  34.0
x(0,0) = 4.83	 x(0,1) = 26.95	 x(0,2) = 20.13	 x(0,3) = 14.83	 
x(1,0) = -0.00	 x(1,1) = 8.46	 x(1,2) = 14.11	 x(1,3) = 1.00	 
x(2,0) = 28.42	 x(2,1) = 21.42	 x(2,2) = 18.42	 x(2,3) = 3.80	 
x(3,0) = 10.00	 x(3,1) = 0.00	 x(3,2) = 24.00	 x(3,3) = 7.00	 
y(0,1,0) = 0.20	 y(1,0,0) = 0.80	 
y(0,2,0) = 0.65	 y(2,0,0) = 0.35	 
y(0,3,0) = 0.76	 y(3,0,0) = 0.24	 
y(1,2,0) = 0.97	 y(2,1,0) = 0.03	 
y(1,3,0) = 0.69	 y(3,1,0) = 0.31	 
y(2,3,0) = 0.00	 y(3,2,0) = 1.00	 
y(0,1,1) = 0.00	 y(1,0,1) = 1.00	 
y(0,2,1) = 0.12	 y(2,0,1) = 0.88	 
y(0,3,1) = 0.00	 y(3,0,1) = 1.00	 
y(1,2,1) = 0.88	 y(2,1,1) = 0.12	 
y(1,3,1) = 0.00	 y(3,1,1) = 1.00	 
y(2,3,1) = 0.00	 y(3,2,1) = 1.00	 
y(0,1,2) = 0.28	 y(1,0,2) = 0.72	 
y(0,2,2) = 0.06	 y(2,0,2) = 0.94	 
y(0,3,2) = 0.62	 y(3,0,2) = 0.38	 
y(1,2,2) = 0.32	 y(2,1,2) = 0.68	 
y(1,3,2) = 1.00	 y(3,1,2) = 0.00	 
y(2,3,2) = 0.88	 y(3,2,2) = 0.12	 
y(0,1,3) = 0.00	 y(1,0,3) = 1.00	 
y(0,2,3) = 0.23	 y(2,0,3) = 0.77	 
y(0,3,3) = 0.37	 y(3,0,3) = 0.63	 
y(1,2,3) = 0.38	 y(2,1,3) = 0.62	 
y(1,3,3) = 0.48	 y(3,1,3) = 0.52	 
y(2,3,3) = 0.25	 y(3,2,3) = 0.75	 
26.94818511243032 21.41862346632729 7
20.12931997831726 14.106466167512085 8
20.12931997831726 18.418623466327293 3
obj:  1.0000000000000044
erro
[(0, 1), (1, 2), (0, 0), (3, 0), (2, 1), (2, 2), (0, 2)]
cliques:  0 mip: 98
C:  34.00000000000001
x(0,0) = 4.30	 x(0,1) = 26.92	 x(0,2) = 20.12	 x(0,3) = 14.30	 
x(1,0) = 1.18	 x(1,1) = 9.18	 x(1,2) = 14.35	 x(1,3) = 2.18	 
x(2,0) = 29.88	 x(2,1) = 22.88	 x(2,2) = 17.84	 x(2,3) = 8.67	 
x(3,0) = 13.97	 x(3,1) = 0.00	 x(3,2) = 23.59	 x(3,3) = 10.97	 
y(0,1,0) = 0.11	 y(1,0,0) = 0.89	 
y(0,2,0) = 0.79	 y(2,0,0) = 0.21	 
y(0,3,0) = 0.98	 y(3,0,0) = 0.02	 
y(1,2,0) = 0.93	 y(2,1,0) = 0.07	 
y(1,3,0) = 0.86	 y(3,1,0) = 0.14	 
y(2,3,0) = 0.00	 y(3,2,0) = 1.00	 
y(0,1,1) = 0.00	 y(1,0,1) = 1.00	 
y(0,2,1) = 0.18	 y(2,0,1) = 0.82	 
y(0,3,1) = 0.00	 y(3,0,1) = 1.00	 
y(1,2,1) = 0.82	 y(2,1,1) = 0.18	 
y(1,3,1) = 0.38	 y(3,1,1) = 0.62	 
y(2,3,1) = 0.00	 y(3,2,1) = 1.00	 
y(0,1,2) = 0.51	 y(1,0,2) = 0.49	 
y(0,2,2) = 0.04	 y(2,0,2) = 0.96	 
y(0,3,2) = 0.52	 y(3,0,2) = 0.48	 
y(1,2,2) = 0.65	 y(2,1,2) = 0.35	 
y(1,3,2) = 1.00	 y(3,1,2) = 0.00	 
y(2,3,2) = 0.45	 y(3,2,2) = 0.55	 
y(0,1,3) = 0.00	 y(1,0,3) = 1.00	 
y(0,2,3) = 0.34	 y(2,0,3) = 0.66	 
y(0,3,3) = 0.02	 y(3,0,3) = 0.98	 
y(1,2,3) = 0.58	 y(2,1,3) = 0.42	 
y(1,3,3) = 0.79	 y(3,1,3) = 0.21	 
y(2,3,3) = 0.21	 y(3,2,3) = 0.79	 
26.92306405437149 22.878167084976397 7
20.11951815989427 14.349302993140485 8
20.11951815989427 17.83515863304774 3
14.300086365082713 8.671773782765248 9
obj:  1.0465939372475792
erro
[(0, 1), (1, 2), (0, 0), (3, 0), (2, 1), (2, 2), (0, 2)]
cliques:  0 mip: 121
C:  33.999999999999986
x(0,0) = 5.08	 x(0,1) = 25.48	 x(0,2) = 19.48	 x(0,3) = 15.08	 
x(1,0) = 0.00	 x(1,1) = 8.99	 x(1,2) = 14.48	 x(1,3) = 1.00	 
x(2,0) = 27.98	 x(2,1) = 20.98	 x(2,2) = 17.98	 x(2,3) = 7.50	 
x(3,0) = 14.35	 x(3,1) = 0.00	 x(3,2) = 23.72	 x(3,3) = 11.35	 
y(0,1,0) = 0.21	 y(1,0,0) = 0.79	 
y(0,2,0) = 0.54	 y(2,0,0) = 0.46	 
y(0,3,0) = 0.96	 y(3,0,0) = 0.04	 
y(1,2,0) = 0.95	 y(2,1,0) = 0.05	 
y(1,3,0) = 0.70	 y(3,1,0) = 0.30	 
y(2,3,0) = 0.00	 y(3,2,0) = 1.00	 
y(0,1,1) = 0.18	 y(1,0,1) = 0.82	 
y(0,2,1) = 0.31	 y(2,0,1) = 0.69	 
y(0,3,1) = 0.00	 y(3,0,1) = 1.00	 
y(1,2,1) = 0.64	 y(2,1,1) = 0.36	 
y(1,3,1) = 0.24	 y(3,1,1) = 0.76	 
y(2,3,1) = 0.00	 y(3,2,1) = 1.00	 
y(0,1,2) = 0.43	 y(1,0,2) = 0.57	 
y(0,2,2) = 0.09	 y(2,0,2) = 0.91	 
y(0,3,2) = 0.69	 y(3,0,2) = 0.31	 
y(1,2,2) = 0.55	 y(2,1,2) = 0.45	 
y(1,3,2) = 1.00	 y(3,1,2) = -0.00	 
y(2,3,2) = 0.75	 y(3,2,2) = 0.25	 
y(0,1,3) = 0.00	 y(1,0,3) = 1.00	 
y(0,2,3) = 0.48	 y(2,0,3) = 0.52	 
y(0,3,3) = 0.04	 y(3,0,3) = 0.96	 
y(1,2,3) = 0.48	 y(2,1,3) = 0.52	 
y(1,3,3) = 1.00	 y(3,1,3) = 0.00	 
y(2,3,3) = 0.44	 y(3,2,3) = 0.56	 
25.47500551823561 20.981804066813616 7
19.475005518235612 14.475115363673963 8
19.475005518235612 17.981804066813613 3
15.079996101199395 7.496833011326263 9
obj:  1.0404260547181405
erro
[(0, 1), (1, 2), (0, 0), (3, 0), (2, 1), (2, 2), (0, 2)]
cliques:  0 mip: 127
C:  34.0
x(0,0) = 7.24	 x(0,1) = 25.89	 x(0,2) = 19.07	 x(0,3) = 17.24	 
x(1,0) = 1.24	 x(1,1) = 9.24	 x(1,2) = 14.24	 x(1,3) = 2.24	 
x(2,0) = 27.33	 x(2,1) = 20.33	 x(2,2) = 16.39	 x(2,3) = 5.32	 
x(3,0) = 12.72	 x(3,1) = 0.00	 x(3,2) = 24.00	 x(3,3) = 9.72	 
y(0,1,0) = 0.19	 y(1,0,0) = 0.81	 
y(0,2,0) = 0.71	 y(2,0,0) = 0.29	 
y(0,3,0) = 0.77	 y(3,0,0) = 0.23	 
y(1,2,0) = 0.97	 y(2,1,0) = 0.03	 
y(1,3,0) = 0.67	 y(3,1,0) = 0.33	 
y(2,3,0) = 0.00	 y(3,2,0) = 1.00	 
y(0,1,1) = 0.11	 y(1,0,1) = 0.89	 
y(0,2,1) = 0.12	 y(2,0,1) = 0.88	 
y(0,3,1) = 0.00	 y(3,0,1) = 1.00	 
y(1,2,1) = 0.85	 y(2,1,1) = 0.15	 
y(1,3,1) = 0.30	 y(3,1,1) = 0.70	 
y(2,3,1) = 0.00	 y(3,2,1) = 1.00	 
y(0,1,2) = 0.37	 y(1,0,2) = 0.63	 
y(0,2,2) = 0.01	 y(2,0,2) = 0.99	 
y(0,3,2) = 0.85	 y(3,0,2) = 0.15	 
y(1,2,2) = 0.37	 y(2,1,2) = 0.63	 
y(1,3,2) = 1.00	 y(3,1,2) = 0.00	 
y(2,3,2) = 0.75	 y(3,2,2) = 0.25	 
y(0,1,3) = 0.00	 y(1,0,3) = 1.00	 
y(0,2,3) = 0.14	 y(2,0,3) = 0.86	 
y(0,3,3) = 0.34	 y(3,0,3) = 0.66	 
y(1,2,3) = 0.43	 y(2,1,3) = 0.57	 
y(1,3,3) = 0.78	 y(3,1,3) = 0.22	 
y(2,3,3) = 0.50	 y(3,2,3) = 0.50	 
25.88682773657853 20.328315199656473 7
19.066468771456556 14.238173264277572 8
19.066468771456556 16.38569991662234 3
obj:  1.0217177931243082
erro
[(0, 1), (1, 2), (0, 0), (3, 0), (2, 1), (2, 2), (0, 2)]
cliques:  0 mip: 127
C:  33.999999999999986
x(0,0) = 4.19	 x(0,1) = 25.90	 x(0,2) = 18.64	 x(0,3) = 15.82	 
x(1,0) = 0.00	 x(1,1) = 9.51	 x(1,2) = 14.86	 x(1,3) = 1.00	 
x(2,0) = 27.91	 x(2,1) = 20.91	 x(2,2) = 17.01	 x(2,3) = 6.98	 
x(3,0) = 14.19	 x(3,1) = 0.00	 x(3,2) = 23.77	 x(3,3) = 11.19	 
y(0,1,0) = 0.17	 y(1,0,0) = 0.83	 
y(0,2,0) = 0.74	 y(2,0,0) = 0.26	 
y(0,3,0) = 1.00	 y(3,0,0) = -0.00	 
y(1,2,0) = 0.85	 y(2,1,0) = 0.15	 
y(1,3,0) = 0.85	 y(3,1,0) = 0.15	 
y(2,3,0) = 0.00	 y(3,2,0) = 1.00	 
y(0,1,1) = 0.22	 y(1,0,1) = 0.78	 
y(0,2,1) = 0.19	 y(2,0,1) = 0.81	 
y(0,3,1) = 0.00	 y(3,0,1) = 1.00	 
y(1,2,1) = 0.78	 y(2,1,1) = 0.22	 
y(1,3,1) = 0.45	 y(3,1,1) = 0.55	 
y(2,3,1) = 0.00	 y(3,2,1) = 1.00	 
y(0,1,2) = 0.59	 y(1,0,2) = 0.41	 
y(0,2,2) = 0.06	 y(2,0,2) = 0.94	 
y(0,3,2) = 0.89	 y(3,0,2) = 0.11	 
y(1,2,2) = 0.46	 y(2,1,2) = 0.54	 
y(1,3,2) = 1.00	 y(3,1,2) = 0.00	 
y(2,3,2) = 0.58	 y(3,2,2) = 0.42	 
y(0,1,3) = 0.00	 y(1,0,3) = 1.00	 
y(0,2,3) = 0.25	 y(2,0,3) = 0.75	 
y(0,3,3) = 0.02	 y(3,0,3) = 0.98	 
y(1,2,3) = 0.49	 y(2,1,3) = 0.51	 
y(1,3,3) = 1.00	 y(3,1,3) = 0.00	 
y(2,3,3) = 0.66	 y(3,2,3) = 0.34	 
25.9026913459404 20.90667884966239 7
18.644179169448925 14.864799955861153 8
18.644179169448925 17.006939347553292 3
15.81930330660519 6.982262523854128 9
obj:  0.9599537289545942
solutions:  1
+ 0.022759601706970122x(1,2) + 0.017780938833570414x(3,2) + 0.01066856330014225x(0,2) 
[(0, 1), (1, 2), (3, 2), (2, 1), (2, 2), (0, 3), (0, 2)]
cliques:  1 mip: 0
C:  33.99999999999999
x(0,0) = 5.00	 x(0,1) = 27.00	 x(0,2) = 21.00	 x(0,3) = 18.30	 
x(1,0) = 0.00	 x(1,1) = 10.20	 x(1,2) = 15.34	 x(1,3) = 1.00	 
x(2,0) = 27.96	 x(2,1) = 20.96	 x(2,2) = 17.96	 x(2,3) = 8.96	 
x(3,0) = 15.00	 x(3,1) = 0.00	 x(3,2) = 24.00	 x(3,3) = 12.00	 
y(0,1,0) = 0.21	 y(1,0,0) = 0.79	 
y(0,2,0) = 0.59	 y(2,0,0) = 0.41	 
y(0,3,0) = 1.00	 y(3,0,0) = 0.00	 
y(1,2,0) = 0.91	 y(2,1,0) = 0.09	 
y(1,3,0) = 0.71	 y(3,1,0) = 0.29	 
y(2,3,0) = 0.00	 y(3,2,0) = 1.00	 
y(0,1,1) = 0.16	 y(1,0,1) = 0.84	 
y(0,2,1) = 0.25	 y(2,0,1) = 0.75	 
y(0,3,1) = 0.00	 y(3,0,1) = 1.00	 
y(1,2,1) = 0.58	 y(2,1,1) = 0.42	 
y(1,3,1) = 0.46	 y(3,1,1) = 0.54	 
y(2,3,1) = 0.00	 y(3,2,1) = 1.00	 
y(0,1,2) = 0.51	 y(1,0,2) = 0.49	 
y(0,2,2) = 0.03	 y(2,0,2) = 0.97	 
y(0,3,2) = 0.43	 y(3,0,2) = 0.57	 
y(1,2,2) = 0.51	 y(2,1,2) = 0.49	 
y(1,3,2) = 1.00	 y(3,1,2) = 0.00	 
y(2,3,2) = 0.64	 y(3,2,2) = 0.36	 
y(0,1,3) = 0.00	 y(1,0,3) = 1.00	 
y(0,2,3) = 0.36	 y(2,0,3) = 0.64	 
y(0,3,3) = 0.01	 y(3,0,3) = 0.99	 
y(1,2,3) = 0.53	 y(2,1,3) = 0.47	 
y(1,3,3) = 1.00	 y(3,1,3) = -0.00	 
y(2,3,3) = 0.73	 y(3,2,3) = 0.27	 
26.999999999999996 20.959039918679224 7
20.999999999999996 15.34374999999988 8
obj:  1.0
erro
[(0, 1), (1, 2), (3, 2), (2, 1), (2, 3), (2, 2), (0, 2)]
cliques:  0 mip: 0
iterações: 11 cortes cliques encontrados: 5 mip: 1040 objective:  33.99999999999999
Coin0506I Presolve 157 (-171) rows, 90 (-71) columns and 490 (-260) elements
Clp1000I sum of infeasibilities 1.79124e-08 - average 1.14092e-10, 0 fixed columns
Coin0506I Presolve 157 (0) rows, 90 (0) columns and 490 (0) elements
Clp0029I End of values pass after 90 iterations
Clp0000I Optimal - objective value 29
Clp0000I Optimal - objective value 29
Coin0511I After Postsolve, objective 29, infeasibilities - dual 0 (0), primal 0 (0)
Clp0000I Optimal - objective value 29
Clp0000I Optimal - objective value 29
Clp0000I Optimal - objective value 29
Coin0511I After Postsolve, objective 29, infeasibilities - dual 0 (0), primal 0 (0)
Clp0032I Optimal objective 29 - 0 iterations time 0.012, Presolve 0.00, Idiot 0.01
Coin3009W Conflict graph built in 0.001 seconds, density: 0.070%
